c User generated cnf file
p cnf 14 19
-11 13 14 0 
5 14 -4 0 
3 10 -12 0 
11 -1 11 0 
-2 3 1 0 
14 -13 13 0 
-3 11 14 0 
8 1 -3 0 
1 5 -10 0 
-12 14 12 0 
6 12 -9 0 
4 -13 13 0 
4 7 -12 0 
12 -5 8 0 
-10 9 13 0 
4 -9 3 0 
4 8 -12 0 
11 6 -7 0 
14 -13 14 0 
